1000 100
314 473
192 180
283 461
161 193
470 45
18 404
303 48
1 363
1 259
4 51
125 426
33 351
90 243
423 118
244 95
462 439
159 497
385 83
458 120
326 452
147 360
69 179
344 147
86 27
161 355
387 274
5 35
222 414
369 316
343 271
278 17
233 96
162 191
150 274
85 391
122 208
76 245
44 459
223 195
389 101
229 215
82 116
53 4
321 416
318 46
438 73
188 394
385 39
3 146
390 111
133 389
152 426
330 322
31 405
63 268
399 329
251 300
186 364
482 114
87 91
478 98
434 418
74 267
256 308
485 343
200 407
222 432
90 303
36 470
332 269
34 82
21 482
221 448
214 65
181 125
172 447
76 342
15 287
128 39
476 32
394 225
7 159
319 384
190 9
67 193
95 92
126 71
39 290
472 100
361 53
453 377
428 430
339 208
66 388
325 428
345 279
374 173
131 185
249 126
112 98
